# Solution for model r10_t9_m2_3
# Finished Task: 9 / 9
# Makespan: 438.0, Total Distance: 693.0, Total Time: 0.0199
# R O S F
0 0 11 0.0 0.0
1 1 14 0.0 0.0
2 2 15 0.0 0.0
3 3 16 0.0 0.0
4 4 18 0.0 0.0
5 5 17 0.0 0.0
6 6 -1 0.0 0.0
7 7 -1 0.0 0.0
8 8 -1 0.0 0.0
9 9 -1 0.0 0.0
10 2 -1 367.0 399.0
11 0 13 188.0 223.0
12 3 -1 377.0 414.0
13 0 -1 379.0 403.0
14 1 -1 346.0 367.0
15 2 10 123.0 162.0
16 3 12 158.0 195.0
17 5 -1 311.0 331.0
18 4 -1 403.0 438.0
